(set-logic ALL)
(set-option :produce-models true)
(declare-sort BoundSet 0)
(declare-sort UnboundSet 0)
(set-option :finite-model-find true)
(declare-fun IsCrowded (BoundSet) Bool)
(declare-fun HasPeople (BoundSet) Bool)
(declare-fun IsStandingNextTo (BoundSet BoundSet) Bool)
(declare-fun IsOnFreightCar (BoundSet) Bool)
(assert (not (=> (and (exists ((a BoundSet)) (and (IsCrowded a) (HasPeople a))) (forall ((e BoundSet)) (forall ((d BoundSet)) (=> (IsStandingNextTo d e) (HasPeople d))))) (exists ((a BoundSet)) (exists ((b BoundSet)) (and (IsStandingNextTo a b) (IsOnFreightCar a)))))))
(check-sat)
(get-model)